jobs  (incl. supersource/sink ):	102
RESOURCES
- renewable                 : 2 R
- nonrenewable              : 2 N
- doubly constrained        : 0 D
************************************************************************
PRECEDENCE RELATIONS:
jobnr.    #modes  #successors   successors
1	1	19		2 3 4 5 6 7 8 9 10 11 12 14 17 18 19 23 24 25 26 
2	3	9		54 42 40 30 29 28 27 21 13 
3	3	9		54 49 35 33 32 28 21 20 13 
4	3	14		55 54 49 46 45 43 42 41 40 38 37 36 34 22 
5	3	10		55 54 45 39 37 36 34 32 20 15 
6	3	9		55 54 46 43 40 39 30 27 21 
7	3	13		55 51 49 46 45 42 41 40 39 38 37 36 22 
8	3	9		55 54 46 43 42 41 38 32 21 
9	3	8		55 49 42 39 37 36 28 22 
10	3	7		46 43 41 40 33 32 21 
11	3	7		66 50 49 39 35 30 16 
12	3	17		69 66 63 56 55 54 52 50 48 46 45 44 43 41 37 36 34 
13	3	15		69 66 65 60 57 56 55 51 50 45 44 39 38 37 36 
14	3	6		60 57 48 44 38 21 
15	3	13		66 65 63 58 57 56 52 49 48 47 46 41 40 
16	3	12		71 65 63 62 60 56 54 52 51 47 43 32 
17	3	9		66 65 63 61 50 44 43 37 31 
18	3	8		66 65 55 54 51 50 47 30 
19	3	14		80 65 63 62 57 56 54 52 48 47 46 44 42 37 
20	3	14		69 66 65 63 62 60 56 52 51 50 48 47 44 43 
21	3	12		69 66 65 63 62 56 52 51 50 45 37 36 
22	3	11		78 71 66 65 63 62 60 56 52 50 32 
23	3	10		71 69 63 56 48 46 43 37 36 34 
24	3	12		69 67 65 63 60 57 56 52 48 47 44 43 
25	3	9		66 63 62 56 50 47 44 42 37 
26	3	12		80 74 71 69 66 63 62 61 54 51 46 44 
27	3	11		74 71 62 61 60 59 57 51 49 44 38 
28	3	10		69 68 67 65 63 56 51 45 43 41 
29	3	9		71 66 61 57 56 50 47 41 37 
30	3	10		80 71 69 68 60 56 52 48 44 37 
31	3	10		80 79 67 59 56 55 52 51 47 42 
32	3	9		101 80 69 68 67 59 57 48 44 
33	3	7		79 76 74 67 63 62 36 
34	3	12		100 96 79 74 68 67 65 64 62 59 58 51 
35	3	10		101 80 77 76 69 68 59 58 57 53 
36	3	6		101 80 77 59 58 47 
37	3	11		101 96 78 76 74 73 67 64 59 58 53 
38	3	11		101 99 79 78 77 76 73 64 63 58 53 
39	3	13		99 98 93 80 78 77 76 75 73 72 70 62 52 
40	3	16		101 99 98 97 94 90 89 88 76 75 71 70 69 67 64 62 
41	3	11		101 100 95 92 91 88 75 73 70 60 59 
42	3	11		97 96 91 87 78 72 71 69 68 64 53 
43	3	8		96 91 80 78 73 64 59 53 
44	3	7		96 87 77 73 64 58 53 
45	3	11		100 99 98 93 91 90 78 71 70 64 61 
46	3	11		101 95 92 89 77 75 73 70 68 67 59 
47	3	10		97 96 91 78 75 73 72 68 64 53 
48	3	12		99 98 97 93 92 90 84 76 74 72 64 61 
49	3	14		99 97 96 94 92 89 88 87 80 77 72 70 69 67 
50	3	12		101 99 96 88 84 80 79 77 75 72 67 64 
51	3	12		101 97 93 92 91 90 89 78 77 76 73 70 
52	3	10		101 100 96 94 90 89 88 87 84 64 
53	3	12		100 98 95 94 93 92 89 88 85 82 81 70 
54	3	12		101 100 97 95 94 89 87 86 78 77 76 75 
55	3	12		101 96 95 92 91 90 88 87 84 82 75 73 
56	3	8		99 98 94 93 87 82 74 70 
57	3	6		96 91 89 88 79 64 
58	3	10		97 92 91 90 88 86 85 83 75 72 
59	3	8		99 98 97 94 93 87 83 72 
60	3	8		97 96 90 89 87 85 76 72 
61	3	7		96 94 89 88 83 79 75 
62	3	7		92 91 87 86 85 84 81 
63	3	6		89 88 84 83 82 75 
64	3	6		95 86 85 83 82 81 
65	3	6		93 92 84 83 82 81 
66	3	4		91 83 75 72 
67	3	4		93 91 85 83 
68	3	4		90 86 84 83 
69	3	2		84 73 
70	3	3		86 84 83 
71	3	3		92 84 81 
72	3	2		82 81 
73	3	2		85 81 
74	3	2		88 81 
75	3	1		81 
76	3	1		82 
77	3	1		81 
78	3	1		84 
79	3	1		87 
80	3	1		90 
81	3	1		102 
82	3	1		102 
83	3	1		102 
84	3	1		102 
85	3	1		102 
86	3	1		102 
87	3	1		102 
88	3	1		102 
89	3	1		102 
90	3	1		102 
91	3	1		102 
92	3	1		102 
93	3	1		102 
94	3	1		102 
95	3	1		102 
96	3	1		102 
97	3	1		102 
98	3	1		102 
99	3	1		102 
100	3	1		102 
101	3	1		102 
102	1	0		
************************************************************************
REQUESTS/DURATIONS
jobnr.	mode	dur	R1	R2	N1	N2	
------------------------------------------------------------------------
1	1	0	0	0	0	0	
2	1	1	4	5	0	4	
	2	6	4	4	0	4	
	3	10	4	4	0	1	
3	1	2	4	5	5	0	
	2	4	3	4	0	7	
	3	8	2	3	3	0	
4	1	3	3	1	4	0	
	2	9	2	1	3	0	
	3	10	1	1	2	0	
5	1	6	2	2	5	0	
	2	6	1	2	0	4	
	3	7	1	2	1	0	
6	1	3	4	2	0	4	
	2	5	3	2	0	4	
	3	10	3	2	8	0	
7	1	2	2	4	0	9	
	2	2	1	3	8	0	
	3	6	1	3	0	4	
8	1	8	3	4	0	10	
	2	10	3	4	0	8	
	3	10	3	3	1	0	
9	1	2	4	5	0	7	
	2	2	2	4	6	0	
	3	5	1	3	0	5	
10	1	2	3	4	0	6	
	2	3	3	3	10	0	
	3	4	3	3	0	4	
11	1	6	2	2	0	5	
	2	7	2	2	0	2	
	3	10	2	2	0	1	
12	1	2	5	2	0	9	
	2	3	4	1	0	6	
	3	4	4	1	1	0	
13	1	2	1	4	0	3	
	2	9	1	4	0	2	
	3	10	1	3	0	2	
14	1	2	2	5	0	8	
	2	4	2	4	0	8	
	3	5	1	3	2	0	
15	1	2	1	5	0	4	
	2	6	1	2	0	4	
	3	9	1	2	1	0	
16	1	1	5	4	0	4	
	2	2	4	4	6	0	
	3	10	3	4	1	0	
17	1	1	4	4	0	7	
	2	4	2	3	5	0	
	3	9	1	3	5	0	
18	1	1	4	2	9	0	
	2	2	2	1	4	0	
	3	9	2	1	1	0	
19	1	2	5	3	9	0	
	2	3	4	3	8	0	
	3	10	2	1	0	5	
20	1	1	5	4	0	5	
	2	2	4	4	8	0	
	3	6	2	4	8	0	
21	1	7	5	4	9	0	
	2	9	3	4	6	0	
	3	10	3	4	0	1	
22	1	3	4	2	0	2	
	2	6	3	1	5	0	
	3	7	2	1	4	0	
23	1	4	4	2	0	4	
	2	7	3	2	4	0	
	3	10	2	2	0	4	
24	1	2	5	4	0	6	
	2	3	3	2	0	5	
	3	10	3	2	0	4	
25	1	3	4	5	0	5	
	2	7	2	4	4	0	
	3	8	1	3	0	4	
26	1	7	4	4	0	4	
	2	8	3	2	0	3	
	3	10	3	2	0	2	
27	1	6	5	2	4	0	
	2	7	3	2	0	2	
	3	7	3	2	2	0	
28	1	1	5	3	5	0	
	2	6	5	3	4	0	
	3	9	5	1	4	0	
29	1	1	5	1	8	0	
	2	2	3	1	5	0	
	3	5	3	1	4	0	
30	1	1	5	5	0	5	
	2	4	4	3	8	0	
	3	6	4	3	0	2	
31	1	1	3	3	6	0	
	2	2	2	2	0	5	
	3	10	1	2	1	0	
32	1	4	4	4	6	0	
	2	6	2	3	0	3	
	3	8	1	2	5	0	
33	1	2	4	4	0	9	
	2	3	2	3	2	0	
	3	8	2	2	2	0	
34	1	2	3	3	0	2	
	2	5	3	2	0	2	
	3	6	3	2	0	1	
35	1	2	5	1	0	4	
	2	3	3	1	8	0	
	3	8	3	1	0	4	
36	1	5	5	3	5	0	
	2	5	4	3	0	7	
	3	9	2	2	4	0	
37	1	1	5	4	0	3	
	2	2	4	4	0	2	
	3	9	4	4	7	0	
38	1	1	4	2	9	0	
	2	5	4	2	4	0	
	3	8	4	2	2	0	
39	1	4	5	1	0	6	
	2	4	2	1	4	0	
	3	5	2	1	3	0	
40	1	2	3	4	0	3	
	2	7	2	2	4	0	
	3	9	1	2	0	1	
41	1	5	4	4	7	0	
	2	7	4	4	0	4	
	3	8	4	4	1	0	
42	1	3	4	1	6	0	
	2	6	3	1	0	3	
	3	10	2	1	5	0	
43	1	8	3	3	0	9	
	2	8	3	3	2	0	
	3	9	3	2	2	0	
44	1	4	2	4	0	2	
	2	6	1	3	0	2	
	3	8	1	3	0	1	
45	1	6	5	4	0	4	
	2	9	2	4	8	0	
	3	9	1	4	0	4	
46	1	2	2	1	5	0	
	2	2	1	1	0	7	
	3	10	1	1	4	0	
47	1	2	3	4	0	3	
	2	3	3	4	0	2	
	3	6	3	3	7	0	
48	1	2	4	3	9	0	
	2	3	3	3	4	0	
	3	5	3	3	2	0	
49	1	2	3	5	0	6	
	2	4	3	3	4	0	
	3	5	2	3	4	0	
50	1	5	4	5	0	3	
	2	9	3	4	4	0	
	3	10	1	2	0	1	
51	1	1	4	2	7	0	
	2	1	2	1	0	4	
	3	4	2	1	1	0	
52	1	6	4	4	0	5	
	2	7	3	3	0	5	
	3	8	2	3	0	3	
53	1	4	5	4	10	0	
	2	5	3	3	6	0	
	3	9	2	3	0	3	
54	1	4	3	2	0	7	
	2	5	3	2	0	5	
	3	10	3	1	0	3	
55	1	3	4	3	0	7	
	2	4	3	1	0	5	
	3	7	3	1	0	2	
56	1	4	2	2	0	8	
	2	9	1	2	4	0	
	3	10	1	2	2	0	
57	1	1	3	3	0	5	
	2	4	1	3	0	5	
	3	7	1	1	2	0	
58	1	3	3	3	0	6	
	2	6	1	2	0	4	
	3	10	1	1	3	0	
59	1	8	5	4	0	8	
	2	8	4	3	5	0	
	3	9	3	3	0	4	
60	1	3	4	4	3	0	
	2	5	3	3	0	4	
	3	10	2	2	0	1	
61	1	3	4	2	7	0	
	2	4	4	1	0	4	
	3	4	4	1	5	0	
62	1	5	3	4	8	0	
	2	7	3	2	7	0	
	3	9	2	2	7	0	
63	1	3	3	4	0	8	
	2	6	2	3	0	6	
	3	7	2	2	0	6	
64	1	1	5	3	7	0	
	2	2	4	2	7	0	
	3	3	3	2	0	2	
65	1	1	5	4	0	8	
	2	2	5	2	4	0	
	3	7	5	1	3	0	
66	1	2	2	1	0	8	
	2	4	2	1	0	6	
	3	9	2	1	0	5	
67	1	2	4	4	4	0	
	2	5	2	4	4	0	
	3	9	2	4	3	0	
68	1	5	1	4	5	0	
	2	8	1	4	0	4	
	3	9	1	4	0	2	
69	1	6	4	3	0	1	
	2	9	4	2	7	0	
	3	10	4	2	6	0	
70	1	1	2	3	4	0	
	2	3	2	3	3	0	
	3	6	1	3	4	0	
71	1	3	4	2	0	8	
	2	4	2	2	0	8	
	3	5	2	2	3	0	
72	1	4	4	4	0	9	
	2	5	3	4	0	7	
	3	8	2	4	0	7	
73	1	1	4	5	0	6	
	2	4	4	4	4	0	
	3	5	4	3	0	2	
74	1	1	4	5	0	3	
	2	7	3	5	7	0	
	3	10	3	5	0	2	
75	1	7	3	4	0	9	
	2	9	3	3	0	6	
	3	10	3	2	0	6	
76	1	4	5	5	0	7	
	2	4	4	5	8	0	
	3	9	3	5	0	3	
77	1	6	3	5	0	6	
	2	8	1	4	0	5	
	3	9	1	4	0	4	
78	1	4	1	3	0	9	
	2	6	1	3	4	0	
	3	10	1	3	0	8	
79	1	5	5	4	8	0	
	2	8	4	4	8	0	
	3	10	2	2	8	0	
80	1	3	3	3	0	8	
	2	4	2	3	0	8	
	3	6	1	3	0	6	
81	1	5	5	2	0	6	
	2	6	3	2	1	0	
	3	9	2	2	0	1	
82	1	8	1	3	0	10	
	2	8	1	3	3	0	
	3	9	1	2	1	0	
83	1	5	1	3	0	8	
	2	6	1	3	0	6	
	3	10	1	2	0	3	
84	1	3	3	5	7	0	
	2	4	2	4	6	0	
	3	4	1	3	0	2	
85	1	1	5	2	0	5	
	2	4	4	2	5	0	
	3	8	4	2	1	0	
86	1	1	3	4	6	0	
	2	9	3	4	0	8	
	3	10	3	3	0	8	
87	1	4	4	4	9	0	
	2	5	2	3	7	0	
	3	7	2	1	0	4	
88	1	2	1	5	0	9	
	2	7	1	5	0	7	
	3	8	1	5	0	2	
89	1	1	2	5	0	9	
	2	2	1	3	0	7	
	3	8	1	3	0	5	
90	1	3	5	2	0	9	
	2	5	3	1	6	0	
	3	9	3	1	2	0	
91	1	4	3	3	6	0	
	2	10	2	3	4	0	
	3	10	1	2	0	4	
92	1	2	4	3	0	5	
	2	7	3	2	0	5	
	3	8	2	2	0	2	
93	1	2	3	4	0	8	
	2	3	3	2	5	0	
	3	6	3	2	0	6	
94	1	5	3	2	0	5	
	2	5	3	1	1	0	
	3	6	2	1	0	1	
95	1	1	3	3	3	0	
	2	5	2	3	2	0	
	3	8	2	3	1	0	
96	1	1	2	5	6	0	
	2	3	2	4	5	0	
	3	5	2	2	3	0	
97	1	6	1	3	0	8	
	2	6	1	3	3	0	
	3	7	1	2	2	0	
98	1	6	2	5	0	4	
	2	6	2	4	3	0	
	3	9	2	2	0	2	
99	1	1	5	4	9	0	
	2	6	4	3	8	0	
	3	9	4	2	7	0	
100	1	7	3	2	9	0	
	2	9	2	2	7	0	
	3	10	1	1	5	0	
101	1	3	4	4	7	0	
	2	6	2	4	0	5	
	3	9	2	4	4	0	
102	1	0	0	0	0	0	
************************************************************************

 RESOURCE AVAILABILITIES 
	R 1	R 2	N 1	N 2
	52	50	148	167

************************************************************************
